p cnf 200 1110
-101 -69 0
-101 -9 0
-101 -19 0
-101 91 0
-101 17 0
-101 81 0
-101 76 0
-101 -37 0
-101 -40 0
-101 62 0
101 69 9 19 -91 -17 -81 -76 37 40 -62 0
-102 -3 0
-102 2 0
-102 -37 0
-102 50 0
-102 64 0
-102 -73 0
-102 -35 0
-102 29 0
-102 -82 0
-102 -21 0
102 3 -2 37 -50 -64 73 35 -29 82 21 0
-103 -38 0
-103 -88 0
-103 -43 0
-103 -4 0
-103 11 0
-103 21 0
-103 -53 0
-103 28 0
-103 79 0
-103 -65 0
103 38 88 43 4 -11 -21 53 -28 -79 65 0
-104 -22 0
-104 -100 0
-104 -88 0
-104 29 0
-104 89 0
-104 3 0
-104 57 0
-104 -16 0
-104 -49 0
-104 36 0
104 22 100 88 -29 -89 -3 -57 16 49 -36 0
-105 90 0
-105 -30 0
-105 33 0
-105 100 0
-105 -10 0
-105 -6 0
-105 46 0
-105 70 0
-105 -43 0
-105 -92 0
105 -90 30 -33 -100 10 6 -46 -70 43 92 0
-106 82 0
-106 78 0
-106 -44 0
-106 83 0
-106 -11 0
-106 -36 0
-106 42 0
-106 65 0
-106 32 0
-106 -22 0
106 -82 -78 44 -83 11 36 -42 -65 -32 22 0
-107 46 0
-107 37 0
-107 23 0
-107 -19 0
-107 20 0
-107 35 0
-107 -45 0
-107 -16 0
-107 11 0
-107 -92 0
107 -46 -37 -23 19 -20 -35 45 16 -11 92 0
-108 -2 0
-108 58 0
-108 -14 0
-108 -9 0
-108 -49 0
-108 62 0
-108 -63 0
-108 87 0
-108 -39 0
-108 -95 0
108 2 -58 14 9 49 -62 63 -87 39 95 0
-109 92 0
-109 -34 0
-109 8 0
-109 55 0
-109 -76 0
-109 37 0
-109 -95 0
-109 57 0
-109 -98 0
-109 -99 0
109 -92 34 -8 -55 76 -37 95 -57 98 99 0
-110 14 0
-110 16 0
-110 -58 0
-110 -20 0
-110 -48 0
-110 6 0
-110 -33 0
-110 44 0
-110 -1 0
-110 37 0
110 -14 -16 58 20 48 -6 33 -44 1 -37 0
101 102 103 104 105 106 107 108 109 110 0
-111 65 0
-111 -87 0
-111 -49 0
-111 61 0
-111 52 0
-111 72 0
-111 35 0
-111 -51 0
-111 -82 0
-111 -89 0
111 -65 87 49 -61 -52 -72 -35 51 82 89 0
-112 99 0
-112 49 0
-112 -89 0
-112 37 0
-112 -12 0
-112 87 0
-112 81 0
-112 60 0
-112 42 0
-112 -90 0
112 -99 -49 89 -37 12 -87 -81 -60 -42 90 0
-113 -1 0
-113 5 0
-113 -90 0
-113 -23 0
-113 -67 0
-113 96 0
-113 3 0
-113 82 0
-113 -75 0
-113 81 0
113 1 -5 90 23 67 -96 -3 -82 75 -81 0
-114 53 0
-114 -87 0
-114 12 0
-114 35 0
-114 -82 0
-114 16 0
-114 -29 0
-114 -26 0
-114 39 0
-114 64 0
114 -53 87 -12 -35 82 -16 29 26 -39 -64 0
-115 -49 0
-115 21 0
-115 -3 0
-115 48 0
-115 -15 0
-115 60 0
-115 -57 0
-115 74 0
-115 -82 0
-115 -35 0
115 49 -21 3 -48 15 -60 57 -74 82 35 0
-116 80 0
-116 -57 0
-116 97 0
-116 -20 0
-116 53 0
-116 54 0
-116 3 0
-116 64 0
-116 65 0
-116 -45 0
116 -80 57 -97 20 -53 -54 -3 -64 -65 45 0
-117 95 0
-117 -14 0
-117 -26 0
-117 96 0
-117 -53 0
-117 21 0
-117 33 0
-117 94 0
-117 55 0
-117 -47 0
117 -95 14 26 -96 53 -21 -33 -94 -55 47 0
-118 -55 0
-118 45 0
-118 -65 0
-118 -72 0
-118 -35 0
-118 -8 0
-118 85 0
-118 30 0
-118 -1 0
-118 29 0
118 55 -45 65 72 35 8 -85 -30 1 -29 0
-119 83 0
-119 28 0
-119 -41 0
-119 -71 0
-119 53 0
-119 -45 0
-119 24 0
-119 17 0
-119 -20 0
-119 90 0
119 -83 -28 41 71 -53 45 -24 -17 20 -90 0
-120 -58 0
-120 -61 0
-120 20 0
-120 73 0
-120 29 0
-120 37 0
-120 -99 0
-120 -34 0
-120 64 0
-120 -5 0
120 58 61 -20 -73 -29 -37 99 34 -64 5 0
111 112 113 114 115 116 117 118 119 120 0
-121 4 0
-121 -41 0
-121 53 0
-121 44 0
-121 2 0
-121 -29 0
-121 76 0
-121 -55 0
-121 20 0
-121 -32 0
121 -4 41 -53 -44 -2 29 -76 55 -20 32 0
-122 -67 0
-122 82 0
-122 2 0
-122 -21 0
-122 -7 0
-122 5 0
-122 -75 0
-122 -9 0
-122 -80 0
-122 14 0
122 67 -82 -2 21 7 -5 75 9 80 -14 0
-123 -87 0
-123 14 0
-123 -2 0
-123 56 0
-123 -40 0
-123 8 0
-123 -73 0
-123 -64 0
-123 -65 0
-123 -79 0
123 87 -14 2 -56 40 -8 73 64 65 79 0
-124 86 0
-124 -59 0
-124 -77 0
-124 2 0
-124 -71 0
-124 21 0
-124 61 0
-124 -80 0
-124 6 0
-124 -31 0
124 -86 59 77 -2 71 -21 -61 80 -6 31 0
-125 41 0
-125 -75 0
-125 -13 0
-125 -66 0
-125 -42 0
-125 -95 0
-125 -35 0
-125 -17 0
-125 -83 0
-125 -87 0
125 -41 75 13 66 42 95 35 17 83 87 0
-126 42 0
-126 22 0
-126 63 0
-126 16 0
-126 26 0
-126 92 0
-126 15 0
-126 -68 0
-126 8 0
-126 14 0
126 -42 -22 -63 -16 -26 -92 -15 68 -8 -14 0
-127 -74 0
-127 -32 0
-127 -7 0
-127 -78 0
-127 -44 0
-127 73 0
-127 20 0
-127 -27 0
-127 -17 0
-127 82 0
127 74 32 7 78 44 -73 -20 27 17 -82 0
-128 99 0
-128 96 0
-128 -31 0
-128 -23 0
-128 -87 0
-128 1 0
-128 60 0
-128 43 0
-128 82 0
-128 -8 0
128 -99 -96 31 23 87 -1 -60 -43 -82 8 0
-129 96 0
-129 -63 0
-129 62 0
-129 -73 0
-129 87 0
-129 57 0
-129 45 0
-129 81 0
-129 33 0
-129 85 0
129 -96 63 -62 73 -87 -57 -45 -81 -33 -85 0
-130 13 0
-130 -96 0
-130 -32 0
-130 -55 0
-130 16 0
-130 70 0
-130 -7 0
-130 -74 0
-130 -52 0
-130 5 0
130 -13 96 32 55 -16 -70 7 74 52 -5 0
121 122 123 124 125 126 127 128 129 130 0
-131 46 0
-131 -21 0
-131 32 0
-131 56 0
-131 87 0
-131 -93 0
-131 95 0
-131 55 0
-131 99 0
-131 -92 0
131 -46 21 -32 -56 -87 93 -95 -55 -99 92 0
-132 94 0
-132 -81 0
-132 -95 0
-132 1 0
-132 14 0
-132 64 0
-132 98 0
-132 47 0
-132 -26 0
-132 -59 0
132 -94 81 95 -1 -14 -64 -98 -47 26 59 0
-133 -70 0
-133 -74 0
-133 -75 0
-133 -95 0
-133 19 0
-133 -10 0
-133 -52 0
-133 -37 0
-133 -33 0
-133 -90 0
133 70 74 75 95 -19 10 52 37 33 90 0
-134 -90 0
-134 76 0
-134 16 0
-134 -26 0
-134 -68 0
-134 43 0
-134 -10 0
-134 -21 0
-134 -100 0
-134 33 0
134 90 -76 -16 26 68 -43 10 21 100 -33 0
-135 -45 0
-135 -59 0
-135 -48 0
-135 47 0
-135 4 0
-135 11 0
-135 -5 0
-135 33 0
-135 -58 0
-135 -69 0
135 45 59 48 -47 -4 -11 5 -33 58 69 0
-136 -58 0
-136 20 0
-136 -19 0
-136 45 0
-136 10 0
-136 65 0
-136 32 0
-136 -78 0
-136 69 0
-136 4 0
136 58 -20 19 -45 -10 -65 -32 78 -69 -4 0
-137 34 0
-137 59 0
-137 -54 0
-137 70 0
-137 -63 0
-137 37 0
-137 -40 0
-137 -75 0
-137 -27 0
-137 -38 0
137 -34 -59 54 -70 63 -37 40 75 27 38 0
-138 -68 0
-138 87 0
-138 96 0
-138 -75 0
-138 28 0
-138 25 0
-138 -11 0
-138 99 0
-138 -95 0
-138 34 0
138 68 -87 -96 75 -28 -25 11 -99 95 -34 0
-139 56 0
-139 41 0
-139 74 0
-139 34 0
-139 -24 0
-139 29 0
-139 47 0
-139 -91 0
-139 82 0
-139 63 0
139 -56 -41 -74 -34 24 -29 -47 91 -82 -63 0
-140 -1 0
-140 -20 0
-140 -17 0
-140 94 0
-140 50 0
-140 -79 0
-140 -40 0
-140 90 0
-140 11 0
-140 22 0
140 1 20 17 -94 -50 79 40 -90 -11 -22 0
131 132 133 134 135 136 137 138 139 140 0
-141 -44 0
-141 5 0
-141 78 0
-141 11 0
-141 -76 0
-141 8 0
-141 88 0
-141 15 0
-141 -52 0
-141 -43 0
141 44 -5 -78 -11 76 -8 -88 -15 52 43 0
-142 52 0
-142 -32 0
-142 85 0
-142 87 0
-142 -4 0
-142 -92 0
-142 -8 0
-142 -94 0
-142 -25 0
-142 46 0
142 -52 32 -85 -87 4 92 8 94 25 -46 0
-143 -34 0
-143 -14 0
-143 8 0
-143 -53 0
-143 36 0
-143 75 0
-143 -79 0
-143 98 0
-143 -56 0
-143 -13 0
143 34 14 -8 53 -36 -75 79 -98 56 13 0
-144 -79 0
-144 -2 0
-144 -22 0
-144 15 0
-144 -85 0
-144 78 0
-144 -36 0
-144 -77 0
-144 -8 0
-144 -57 0
144 79 2 22 -15 85 -78 36 77 8 57 0
-145 -30 0
-145 -42 0
-145 95 0
-145 36 0
-145 -10 0
-145 14 0
-145 -93 0
-145 -60 0
-145 -76 0
-145 -5 0
145 30 42 -95 -36 10 -14 93 60 76 5 0
-146 36 0
-146 -59 0
-146 38 0
-146 65 0
-146 -72 0
-146 62 0
-146 85 0
-146 100 0
-146 26 0
-146 -53 0
146 -36 59 -38 -65 72 -62 -85 -100 -26 53 0
-147 42 0
-147 -95 0
-147 -86 0
-147 51 0
-147 82 0
-147 -31 0
-147 -11 0
-147 24 0
-147 89 0
-147 -99 0
147 -42 95 86 -51 -82 31 11 -24 -89 99 0
-148 -14 0
-148 -42 0
-148 -82 0
-148 12 0
-148 30 0
-148 -9 0
-148 -28 0
-148 -11 0
-148 37 0
-148 65 0
148 14 42 82 -12 -30 9 28 11 -37 -65 0
-149 -50 0
-149 34 0
-149 97 0
-149 15 0
-149 -68 0
-149 -71 0
-149 72 0
-149 52 0
-149 7 0
-149 -66 0
149 50 -34 -97 -15 68 71 -72 -52 -7 66 0
-150 -68 0
-150 24 0
-150 29 0
-150 55 0
-150 47 0
-150 43 0
-150 66 0
-150 -69 0
-150 12 0
-150 27 0
150 68 -24 -29 -55 -47 -43 -66 69 -12 -27 0
141 142 143 144 145 146 147 148 149 150 0
-151 -2 0
-151 99 0
-151 -1 0
-151 28 0
-151 -69 0
-151 58 0
-151 -49 0
-151 83 0
-151 -45 0
-151 90 0
151 2 -99 1 -28 69 -58 49 -83 45 -90 0
-152 -22 0
-152 -90 0
-152 -27 0
-152 -48 0
-152 -21 0
-152 96 0
-152 -28 0
-152 86 0
-152 37 0
-152 66 0
152 22 90 27 48 21 -96 28 -86 -37 -66 0
-153 12 0
-153 -72 0
-153 -7 0
-153 -56 0
-153 -50 0
-153 -67 0
-153 -43 0
-153 51 0
-153 -74 0
-153 4 0
153 -12 72 7 56 50 67 43 -51 74 -4 0
-154 -25 0
-154 95 0
-154 -73 0
-154 1 0
-154 -96 0
-154 -85 0
-154 72 0
-154 24 0
-154 -58 0
-154 54 0
154 25 -95 73 -1 96 85 -72 -24 58 -54 0
-155 52 0
-155 -46 0
-155 41 0
-155 -38 0
-155 -75 0
-155 -21 0
-155 19 0
-155 -14 0
-155 -25 0
-155 -9 0
155 -52 46 -41 38 75 21 -19 14 25 9 0
-156 75 0
-156 94 0
-156 -91 0
-156 -30 0
-156 -77 0
-156 -78 0
-156 -76 0
-156 -39 0
-156 -50 0
-156 -69 0
156 -75 -94 91 30 77 78 76 39 50 69 0
-157 30 0
-157 -20 0
-157 93 0
-157 -32 0
-157 -37 0
-157 17 0
-157 -94 0
-157 55 0
-157 -51 0
-157 65 0
157 -30 20 -93 32 37 -17 94 -55 51 -65 0
-158 -14 0
-158 -45 0
-158 -88 0
-158 -96 0
-158 -68 0
-158 -98 0
-158 -64 0
-158 56 0
-158 13 0
-158 -59 0
158 14 45 88 96 68 98 64 -56 -13 59 0
-159 -71 0
-159 54 0
-159 36 0
-159 26 0
-159 80 0
-159 -22 0
-159 35 0
-159 -21 0
-159 -98 0
-159 74 0
159 71 -54 -36 -26 -80 22 -35 21 98 -74 0
-160 84 0
-160 -39 0
-160 -100 0
-160 67 0
-160 76 0
-160 34 0
-160 -78 0
-160 64 0
-160 15 0
-160 45 0
160 -84 39 100 -67 -76 -34 78 -64 -15 -45 0
151 152 153 154 155 156 157 158 159 160 0
-161 -32 0
-161 83 0
-161 -61 0
-161 -34 0
-161 80 0
-161 96 0
-161 70 0
-161 88 0
-161 7 0
-161 -84 0
161 32 -83 61 34 -80 -96 -70 -88 -7 84 0
-162 22 0
-162 67 0
-162 66 0
-162 -33 0
-162 10 0
-162 -7 0
-162 -87 0
-162 77 0
-162 37 0
-162 -92 0
162 -22 -67 -66 33 -10 7 87 -77 -37 92 0
-163 -70 0
-163 30 0
-163 -59 0
-163 92 0
-163 73 0
-163 -95 0
-163 8 0
-163 -15 0
-163 61 0
-163 -29 0
163 70 -30 59 -92 -73 95 -8 15 -61 29 0
-164 -29 0
-164 26 0
-164 61 0
-164 -83 0
-164 -94 0
-164 4 0
-164 -74 0
-164 65 0
-164 93 0
-164 55 0
164 29 -26 -61 83 94 -4 74 -65 -93 -55 0
-165 -81 0
-165 54 0
-165 -13 0
-165 35 0
-165 78 0
-165 -42 0
-165 76 0
-165 94 0
-165 -36 0
-165 -24 0
165 81 -54 13 -35 -78 42 -76 -94 36 24 0
-166 28 0
-166 -58 0
-166 42 0
-166 -76 0
-166 -14 0
-166 10 0
-166 -44 0
-166 33 0
-166 61 0
-166 -52 0
166 -28 58 -42 76 14 -10 44 -33 -61 52 0
-167 23 0
-167 -3 0
-167 -27 0
-167 71 0
-167 -20 0
-167 57 0
-167 -70 0
-167 54 0
-167 64 0
-167 -28 0
167 -23 3 27 -71 20 -57 70 -54 -64 28 0
-168 -56 0
-168 39 0
-168 -37 0
-168 -67 0
-168 99 0
-168 -93 0
-168 -7 0
-168 -69 0
-168 -90 0
-168 1 0
168 56 -39 37 67 -99 93 7 69 90 -1 0
-169 39 0
-169 5 0
-169 -37 0
-169 40 0
-169 -59 0
-169 36 0
-169 13 0
-169 3 0
-169 -80 0
-169 -72 0
169 -39 -5 37 -40 59 -36 -13 -3 80 72 0
-170 -33 0
-170 -25 0
-170 -70 0
-170 -3 0
-170 -96 0
-170 -12 0
-170 27 0
-170 54 0
-170 -17 0
-170 -40 0
170 33 25 70 3 96 12 -27 -54 17 40 0
161 162 163 164 165 166 167 168 169 170 0
-171 -66 0
-171 34 0
-171 -88 0
-171 -91 0
-171 2 0
-171 -49 0
-171 51 0
-171 -71 0
-171 1 0
-171 90 0
171 66 -34 88 91 -2 49 -51 71 -1 -90 0
-172 -21 0
-172 -26 0
-172 -72 0
-172 -100 0
-172 74 0
-172 -91 0
-172 -99 0
-172 -4 0
-172 -17 0
-172 -32 0
172 21 26 72 100 -74 91 99 4 17 32 0
-173 -1 0
-173 -8 0
-173 7 0
-173 -68 0
-173 -65 0
-173 -41 0
-173 97 0
-173 -98 0
-173 86 0
-173 -58 0
173 1 8 -7 68 65 41 -97 98 -86 58 0
-174 -57 0
-174 -23 0
-174 16 0
-174 22 0
-174 4 0
-174 75 0
-174 33 0
-174 -18 0
-174 -30 0
-174 -92 0
174 57 23 -16 -22 -4 -75 -33 18 30 92 0
-175 -40 0
-175 -84 0
-175 91 0
-175 53 0
-175 -96 0
-175 56 0
-175 67 0
-175 -64 0
-175 -30 0
-175 -6 0
175 40 84 -91 -53 96 -56 -67 64 30 6 0
-176 -91 0
-176 48 0
-176 70 0
-176 -42 0
-176 -90 0
-176 15 0
-176 -81 0
-176 2 0
-176 -100 0
-176 21 0
176 91 -48 -70 42 90 -15 81 -2 100 -21 0
-177 -94 0
-177 -7 0
-177 82 0
-177 54 0
-177 55 0
-177 -8 0
-177 23 0
-177 -95 0
-177 -44 0
-177 81 0
177 94 7 -82 -54 -55 8 -23 95 44 -81 0
-178 -3 0
-178 33 0
-178 36 0
-178 20 0
-178 96 0
-178 -32 0
-178 2 0
-178 11 0
-178 4 0
-178 49 0
178 3 -33 -36 -20 -96 32 -2 -11 -4 -49 0
-179 49 0
-179 -39 0
-179 -72 0
-179 -36 0
-179 -12 0
-179 2 0
-179 59 0
-179 78 0
-179 94 0
-179 50 0
179 -49 39 72 36 12 -2 -59 -78 -94 -50 0
-180 -75 0
-180 12 0
-180 -86 0
-180 -43 0
-180 -46 0
-180 -57 0
-180 -31 0
-180 24 0
-180 1 0
-180 51 0
180 75 -12 86 43 46 57 31 -24 -1 -51 0
171 172 173 174 175 176 177 178 179 180 0
-181 -43 0
-181 39 0
-181 53 0
-181 6 0
-181 -94 0
-181 -76 0
-181 3 0
-181 51 0
-181 37 0
-181 13 0
181 43 -39 -53 -6 94 76 -3 -51 -37 -13 0
-182 -33 0
-182 29 0
-182 53 0
-182 -88 0
-182 -5 0
-182 -44 0
-182 -58 0
-182 14 0
-182 62 0
-182 -18 0
182 33 -29 -53 88 5 44 58 -14 -62 18 0
-183 14 0
-183 20 0
-183 66 0
-183 -18 0
-183 33 0
-183 -68 0
-183 70 0
-183 62 0
-183 82 0
-183 100 0
183 -14 -20 -66 18 -33 68 -70 -62 -82 -100 0
-184 -49 0
-184 -92 0
-184 -73 0
-184 -26 0
-184 60 0
-184 -40 0
-184 -10 0
-184 -18 0
-184 -30 0
-184 -96 0
184 49 92 73 26 -60 40 10 18 30 96 0
-185 -36 0
-185 -71 0
-185 -37 0
-185 -30 0
-185 -51 0
-185 29 0
-185 -67 0
-185 5 0
-185 8 0
-185 -60 0
185 36 71 37 30 51 -29 67 -5 -8 60 0
-186 98 0
-186 4 0
-186 8 0
-186 7 0
-186 37 0
-186 -45 0
-186 -89 0
-186 69 0
-186 -76 0
-186 99 0
186 -98 -4 -8 -7 -37 45 89 -69 76 -99 0
-187 95 0
-187 -55 0
-187 70 0
-187 83 0
-187 -71 0
-187 -43 0
-187 10 0
-187 -42 0
-187 -76 0
-187 86 0
187 -95 55 -70 -83 71 43 -10 42 76 -86 0
-188 -65 0
-188 -57 0
-188 92 0
-188 -75 0
-188 -21 0
-188 15 0
-188 -30 0
-188 49 0
-188 -73 0
-188 55 0
188 65 57 -92 75 21 -15 30 -49 73 -55 0
-189 -87 0
-189 92 0
-189 82 0
-189 -14 0
-189 16 0
-189 -8 0
-189 -43 0
-189 56 0
-189 -93 0
-189 -4 0
189 87 -92 -82 14 -16 8 43 -56 93 4 0
-190 89 0
-190 8 0
-190 -33 0
-190 36 0
-190 75 0
-190 -95 0
-190 -27 0
-190 -74 0
-190 91 0
-190 -17 0
190 -89 -8 33 -36 -75 95 27 74 -91 17 0
181 182 183 184 185 186 187 188 189 190 0
-191 18 0
-191 -43 0
-191 57 0
-191 -89 0
-191 -62 0
-191 6 0
-191 -11 0
-191 1 0
-191 -71 0
-191 -74 0
191 -18 43 -57 89 62 -6 11 -1 71 74 0
-192 44 0
-192 65 0
-192 -39 0
-192 -40 0
-192 -68 0
-192 79 0
-192 -42 0
-192 -17 0
-192 25 0
-192 61 0
192 -44 -65 39 40 68 -79 42 17 -25 -61 0
-193 47 0
-193 28 0
-193 -66 0
-193 11 0
-193 76 0
-193 -93 0
-193 -73 0
-193 -78 0
-193 -46 0
-193 35 0
193 -47 -28 66 -11 -76 93 73 78 46 -35 0
-194 67 0
-194 -81 0
-194 86 0
-194 -91 0
-194 88 0
-194 76 0
-194 -33 0
-194 -46 0
-194 80 0
-194 -60 0
194 -67 81 -86 91 -88 -76 33 46 -80 60 0
-195 -45 0
-195 -81 0
-195 78 0
-195 52 0
-195 -89 0
-195 44 0
-195 4 0
-195 70 0
-195 80 0
-195 -66 0
195 45 81 -78 -52 89 -44 -4 -70 -80 66 0
-196 52 0
-196 -78 0
-196 -34 0
-196 43 0
-196 48 0
-196 -69 0
-196 89 0
-196 10 0
-196 -39 0
-196 51 0
196 -52 78 34 -43 -48 69 -89 -10 39 -51 0
-197 80 0
-197 66 0
-197 1 0
-197 -17 0
-197 7 0
-197 76 0
-197 -42 0
-197 -75 0
-197 -33 0
-197 59 0
197 -80 -66 -1 17 -7 -76 42 75 33 -59 0
-198 -99 0
-198 11 0
-198 -20 0
-198 -63 0
-198 83 0
-198 -71 0
-198 28 0
-198 -42 0
-198 -79 0
-198 78 0
198 99 -11 20 63 -83 71 -28 42 79 -78 0
-199 -99 0
-199 61 0
-199 18 0
-199 -91 0
-199 -82 0
-199 -63 0
-199 -73 0
-199 20 0
-199 -34 0
-199 64 0
199 99 -61 -18 91 82 63 73 -20 34 -64 0
-200 -95 0
-200 88 0
-200 -40 0
-200 -99 0
-200 -58 0
-200 -37 0
-200 65 0
-200 69 0
-200 -15 0
-200 42 0
200 95 -88 40 99 58 37 -65 -69 15 -42 0
191 192 193 194 195 196 197 198 199 200 0
